(set-info :smt-lib-version 2.6)
(set-logic LRA)
(set-info :source |
   Monniaux, David; Quantifier Elimination by Lazy Model Enumeration, CAV 2010
|)
(set-info :category "random")
; ./Mjollnir_examples/B5/formula_015.m
(set-info :status unsat)
(assert
 (forall ((|v17:0| Real) )(forall ((|v16:1| Real) )(forall ((|v15:2| Real) )(forall ((|v14:3| Real) )(forall ((|v13:4| Real) )(forall ((|v12:5| Real) )(exists ((|v11:6| Real) )(exists ((|v10:7| Real) )(exists ((|v9:8| Real) )(exists ((|v8:9| Real) )(exists ((|v7:10| Real) )(exists ((|v6:11| Real) )(forall ((|v5:12| Real) )(forall ((|v4:13| Real) )(forall ((|v3:14| Real) )(forall ((|v2:15| Real) )(forall ((|v1:16| Real) )(forall ((|v0:17| Real) )(let ((?x209 (+ (+ (* 14 |v2:15|) (* 10 |v12:5|)) (* 7 |v6:11|))))
(let ((?x51 (- 7)))
(let ((?x132 (* (- 13) |v12:5|)))
(let ((?x205 (+ (+ (+ (* 0 |v15:2|) (* 0 |v11:6|)) ?x132) (* (- 3) |v10:7|))))
(let (($x213 (and (<= ?x205 ?x51) (<= (+ ?x209 (* (- 14) |v13:4|)) 18))))
(let ((?x32 (- 15)))
(let ((?x111 (* 16 |v17:0|)))
(let ((?x197 (+ (+ (+ (* 15 |v16:1|) (* (- 2) |v12:5|)) ?x111) (* (- 18) |v13:4|))))
(let ((?x59 (- 2)))
(let ((?x190 (+ (+ (+ (* 9 |v7:10|) (* 14 |v2:15|)) |v2:15|) (* 19 |v12:5|))))
(let ((?x174 (+ (+ (* 17 |v11:6|) (* ?x51 |v14:3|)) (* 18 |v9:8|))))
(let ((?x161 (+ (+ (* 20 |v6:11|) (* (- 12) |v6:11|)) (* 4 |v0:17|))))
(let (($x178 (or (<= (+ ?x161 (* ?x32 |v8:9|)) (- 18)) (<= (+ ?x174 (* (- 12) |v4:13|)) 8))))
(let ((?x65 (- 12)))
(let ((?x149 (+ (+ (* (- 16) |v11:6|) (* ?x65 |v16:1|)) (* 8 |v3:14|))))
(let ((?x139 (+ (+ (+ (* (- 8) |v15:2|) ?x132) (* (- 4) |v3:14|)) (* (- 17) |v11:6|))))
(let (($x179 (and (and (<= ?x139 10) (<= (+ ?x149 (* ?x65 |v11:6|)) ?x65)) $x178)))
(let ((?x35 (- 4)))
(let ((?x120 (+ (+ (* 0 |v12:5|) (* (- 20) |v13:4|)) (* 11 |v16:1|))))
(let ((?x108 (+ (+ (* (- 6) |v12:5|) (* 0 |v10:7|)) (* (- 3) |v17:0|))))
(let (($x126 (and (<= (+ ?x108 ?x111) ?x59) (<= (+ ?x120 (* (- 13) |v16:1|)) ?x35))))
(let ((?x94 (+ (+ (* ?x59 |v4:13|) (* 10 |v12:5|)) (* (- 14) |v0:17|))))
(let ((?x78 (+ (+ (* (- 20) |v7:10|) (* 9 |v14:3|)) (* 9 |v4:13|))))
(let (($x98 (and (<= (+ ?x78 (* (- 9) |v17:0|)) 5) (<= (+ ?x94 (* 9 |v16:1|)) ?x35))))
(let ((?x64 (+ (+ (+ (* ?x51 |v5:12|) (* 17 |v16:1|)) (* ?x59 |v6:11|)) (* (- 11) |v12:5|))))
(let (($x216 (and (and (<= ?x64 ?x65) (and $x98 $x126)) (and $x179 (and (and (<= ?x190 ?x59) (<= ?x197 ?x32)) $x213)))))
(let ((?x46 0))
(let ((?x45 (+ (+ (+ (* ?x32 |v3:14|) (* ?x35 |v3:14|)) (* (- 11) |v15:2|)) (* (- 1) |v17:0|))))
(let ((?x21 (+ (+ (* 4 |v7:10|) (* 7 |v16:1|)) (* 15 |v13:4|))))
(or (<= (+ ?x21 (* (- 1) |v1:16|)) 3) (or (<= ?x45 ?x46) $x216))))))))))))))))))))))))))))))))
)
)
)
)
)
)
)
)
)
)
)
)
)
)
)
)
)
)
(check-sat)
(exit)

